p edge 130 301
e 1 3
e 1 4
e 1 15
e 1 20
e 1 23
e 1 29
e 1 30
e 1 44
e 1 106
e 1 112
e 2 3
e 2 7
e 2 14
e 2 15
e 2 16
e 2 22
e 2 40
e 2 75
e 2 81
e 3 4
e 3 15
e 3 30
e 3 44
e 3 46
e 3 47
e 3 50
e 3 69
e 3 73
e 3 101
e 4 16
e 4 30
e 4 31
e 4 32
e 4 44
e 4 53
e 4 69
e 5 25
e 5 51
e 5 88
e 6 13
e 6 16
e 6 22
e 6 26
e 6 28
e 6 32
e 6 35
e 6 48
e 6 80
e 7 20
e 7 24
e 7 26
e 7 30
e 7 31
e 7 41
e 8 18
e 8 19
e 8 21
e 8 25
e 8 29
e 8 52
e 8 60
e 8 68
e 8 74
e 8 114
e 8 118
e 8 129
e 9 11
e 9 41
e 9 44
e 9 61
e 9 63
e 9 102
e 10 11
e 10 12
e 10 38
e 10 50
e 10 59
e 10 82
e 10 83
e 10 86
e 11 12
e 11 41
e 11 47
e 11 49
e 11 50
e 11 59
e 11 63
e 11 82
e 11 87
e 11 113
e 11 115
e 12 17
e 12 30
e 12 37
e 12 41
e 12 47
e 12 49
e 12 57
e 13 14
e 13 15
e 13 16
e 13 22
e 13 28
e 13 48
e 13 85
e 14 16
e 14 22
e 14 28
e 14 40
e 14 48
e 14 58
e 15 24
e 15 30
e 15 75
e 15 85
e 16 22
e 16 32
e 16 40
e 16 80
e 17 23
e 17 90
e 18 21
e 18 25
e 18 60
e 18 68
e 18 71
e 18 84
e 18 116
e 18 117
e 18 118
e 18 129
e 19 71
e 19 81
e 19 92
e 19 98
e 20 24
e 20 30
e 20 31
e 20 78
e 20 85
e 20 97
e 21 25
e 21 26
e 21 37
e 21 57
e 21 60
e 21 84
e 21 117
e 22 35
e 22 40
e 22 67
e 22 80
e 23 27
e 23 34
e 23 46
e 23 103
e 23 112
e 24 28
e 24 41
e 24 97
e 25 60
e 25 84
e 25 118
e 26 31
e 27 34
e 27 36
e 27 39
e 27 42
e 27 46
e 27 99
e 27 100
e 27 107
e 27 111
e 28 48
e 28 49
e 29 33
e 29 68
e 30 31
e 30 37
e 30 44
e 30 57
e 31 40
e 31 44
e 31 64
e 32 53
e 32 80
e 33 34
e 33 39
e 33 42
e 33 62
e 33 105
e 34 36
e 34 42
e 34 46
e 34 103
e 35 48
e 35 67
e 35 74
e 36 39
e 36 42
e 36 111
e 37 57
e 38 91
e 38 93
e 39 76
e 39 105
e 39 111
e 40 52
e 40 55
e 40 58
e 40 64
e 41 63
e 42 62
e 42 107
e 43 54
e 43 104
e 43 109
e 43 110
e 45 65
e 45 77
e 46 47
e 46 50
e 46 57
e 46 72
e 46 73
e 46 79
e 47 49
e 47 50
e 47 69
e 47 73
e 48 108
e 49 72
e 50 59
e 50 73
e 52 55
e 52 58
e 52 64
e 54 61
e 54 65
e 55 58
e 55 64
e 56 96
e 57 72
e 57 79
e 58 64
e 59 79
e 59 82
e 59 83
e 59 86
e 59 130
e 60 84
e 60 118
e 61 65
e 62 70
e 62 94
e 62 95
e 63 66
e 63 78
e 63 89
e 66 78
e 66 86
e 66 89
e 67 125
e 67 126
e 67 127
e 67 128
e 68 71
e 68 116
e 68 129
e 70 94
e 70 95
e 71 98
e 71 116
e 72 79
e 73 101
e 74 114
e 78 85
e 78 89
e 79 130
e 82 83
e 82 86
e 82 87
e 82 115
e 83 86
e 87 115
e 94 95
e 99 100
e 109 110
e 119 120
e 119 121
e 119 122
e 120 121
e 120 122
e 121 122
e 123 124
e 125 126
e 125 127
e 125 128
e 126 127
e 126 128
e 127 128
